
  32    1
  10

   0   0   7 2 3 4 6 7 10 12 
   5   2   6 17 16 15 14 13 9 
   9   4   3 17 13 5 
   2   3   5 26 17 15 14 11 
   4   5   3 21 11 8 
   5   5   4 26 19 14 11 
   1   7   2 15 8 
   3   4   6 31 26 23 19 18 14 
   9   5   2 26 11 
   4   8   5 23 22 20 19 18 
   4   3   5 30 23 22 20 18 
   2   6   4 23 22 19 18 
   5   7   3 31 23 18 
   5   9   5 30 29 25 24 22 
  10   6   4 29 25 24 22 
   9   5   4 29 25 24 22 
   3   9   2 25 19 
   4   7   3 29 28 24 
   1   6   3 30 28 24 
   8  10   3 31 28 27 
   8   8   2 31 24 
   2   7   2 28 27 
   3   7   1 25 
   9   5   1 27 
   3  10   1 27 
   7   3   1 27 
   2   6   1 32
   8   5   1 32
   5   5   1 32
  10   8   1 32
   5   5   1 32
   0   0   0 
